p tw 142 164
1 2
2 55
3 14
4 5
5 6
6 7
7 8
8 9
9 10
10 11
10 26
11 12
12 13
13 15
14 25
15 16
16 17
16 26
17 18
18 19
19 20
20 21
21 22
22 23
23 24
24 8
25 36
26 27
27 28
28 29
29 30
30 37
31 32
32 33
33 37
34 35
35 37
36 47
36 53
37 38
38 39
39 40
40 79
41 42
42 43
43 44
44 45
45 46
46 48
47 50
48 49
50 51
51 52
51 132
52 48
53 54
54 56
55 66
56 57
57 58
58 59
59 60
60 61
61 62
61 64
62 63
63 56
64 65
65 67
66 77
67 68
68 69
69 70
70 71
71 72
71 132
72 73
73 74
74 75
75 76
75 132
76 78
77 88
78 79
79 80
80 81
81 82
82 83
82 41
83 84
84 85
84 41
85 86
86 87
87 89
87 97
88 99
88 110
89 90
90 91
90 34
91 92
92 93
93 94
94 95
95 96
96 37
97 98
98 100
99 110
99 132
100 101
101 102
102 103
102 4
103 104
104 105
104 4
105 106
106 107
106 4
107 108
108 109
108 4
109 111
110 121
111 112
111 124
112 113
113 114
113 137
114 115
115 116
115 140
116 117
117 118
117 127
118 119
119 120
119 130
120 122
121 48
122 123
122 134
123 31
124 125
125 126
126 37
127 128
128 129
129 37
130 131
131 133
132 3
133 37
134 135
135 136
136 37
137 138
138 139
139 37
140 141
141 142
142 37
